1 -1 -2 0
1 -1 3 0
1 -1 4 0
1 1 5 0
1 1 -6 0
1 -2 4 0
1 2 1 0
1 -2 -6 0
1 -7 -8 0
1 7 -9 0
1 -7 -5 0
1 -10 -8 0
1 10 11 0
1 -10 4 0
1 10 12 0
1 -10 7 0
1 -10 5 0
1 4 -13 0
1 4 10 0
1 4 -2 0
1 -4 -6 0
1 -6 14 0
1 6 -15 0
1 6 -13 0
1 6 -10 0
1 -6 -2 0
1 -6 16 0
1 6 -17 0
1 -6 7 0
1 -3 -10 0
1 -3 2 0
1 -3 -16 0
1 -3 18 0
1 -3 19 0
1 -3 1 0
1 -5 -20 0
1 -5 2 0
1 -5 7 0
1 -5 1 0
1 -17 8 0
1 17 -11 0
1 -17 -4 0
1 -17 -12 0
1 -17 -19 0
1 17 -6 0
1 13 21 0
1 -13 -4 0
1 13 12 0
1 13 -6 0
1 22 11 0
1 -22 23 0
1 22 24 0
1 -22 -4 0
1 -22 -25 0
1 -26 -24 0
1 -26 9 0
1 -26 -22 0
1 26 27 0
1 -26 6 0
1 9 28 0
1 9 -11 0
1 -9 -29 0
1 9 -17 0
1 9 -7 0
1 11 -30 0
1 11 -26 0
1 -11 -9 0
1 -11 17 0
1 -11 -31 0
1 -12 -8 0
1 12 32 0
1 12 15 0
1 -12 -13 0
1 -12 -10 0
1 -12 -33 0
1 12 34 0
1 -12 7 0
1 -8 -32 0
1 8 35 0
1 -8 13 0
1 -8 10 0
1 8 33 0
1 -8 12 0
1 -8 36 0
1 8 -16 0
1 8 -17 0
1 -8 7 0
1 8 31 0
1 37 24 0
1 37 16 0
1 -37 25 0
1 -28 15 0
1 28 23 0
1 28 -24 0
1 -28 37 0
1 28 25 0
1 -38 11 0
1 -38 36 0
1 38 9 0
1 -38 25 0
1 38 27 0
1 -39 -32 0
1 -39 23 0
1 39 -9 0
1 27 39 0
1 27 28 0
1 27 -26 0
1 27 -37 0
1 -27 22 0
1 -27 -40 0
1 27 41 0
1 24 39 0
1 24 28 0
1 -24 26 0
1 24 -38 0
1 -24 -22 0
1 -24 27 0
1 -24 41 0
1 25 39 0
1 -25 28 0
1 25 26 0
1 25 -23 0
1 25 -42 0
1 25 43 0
1 25 -38 0
1 25 44 0
1 -25 45 0
1 -23 -25 0
1 23 -41 0
1 46 -47 0
1 -48 -47 0
1 -48 -2 0
1 -48 -49 0
1 48 46 0
1 50 -51 0
1 50 -52 0
1 -50 -53 0
1 -51 -54 0
1 51 10 0
1 -51 55 0
1 -51 49 0
1 -51 -56 0
1 51 -52 0
1 -51 50 0
1 47 57 0
1 47 -20 0
1 47 51 0
1 -47 48 0
1 -47 58 0
1 -47 -18 0
1 47 -50 0
1 -47 -46 0
1 59 47 0
1 59 -21 0
1 -59 -51 0
1 59 -48 0
1 59 58 0
1 -59 -18 0
1 -59 19 0
1 59 50 0
1 -59 -46 0
1 -60 -61 0
1 -60 -57 0
1 60 62 0
1 -60 -58 0
1 -60 -63 0
1 60 -64 0
1 -49 -65 0
1 -49 62 0
1 49 -51 0
1 49 -58 0
1 49 -64 0
1 19 47 0
1 -19 21 0
1 19 3 0
1 19 -56 0
1 19 52 0
1 -19 64 0
1 19 5 0
1 -21 -47 0
1 -21 -13 0
1 -21 62 0
1 21 -3 0
1 21 56 0
1 -21 52 0
1 21 -19 0
1 21 5 0
1 18 47 0
1 18 20 0
1 -18 -66 0
1 -18 -3 0
1 18 56 0
1 -18 -22 0
1 18 52 0
1 18 63 0
1 18 67 0
1 18 5 0
1 -20 -52 0
1 20 47 0
1 -20 68 0
1 -20 3 0
1 20 -59 0
1 -20 -56 0
1 20 -18 0
1 -20 67 0
1 -20 -5 0
1 -54 51 0
1 -54 -69 0
1 54 -18 0
1 -54 -19 0
1 54 -50 0
1 52 32 0
1 52 20 0
1 52 -21 0
1 -52 51 0
1 52 16 0
1 52 50 0
1 68 57 0
1 -68 70 0
1 68 21 0
1 68 69 0
1 -68 71 0
1 68 -18 0
1 -68 19 0
1 -56 72 0
1 56 -57 0
1 -56 -20 0
1 56 -58 0
1 -56 73 0
1 56 50 0
1 -16 -15 0
1 -16 -54 0
1 -16 -66 0
1 16 -74 0
1 16 -4 0
1 -16 -12 0
1 -16 58 0
1 -16 -75 0
1 16 -5 0
1 -15 54 0
1 -15 3 0
1 15 -52 0
1 -36 -14 0
1 -36 8 0
1 36 -54 0
1 36 66 0
1 -36 -76 0
1 36 -12 0
1 -36 75 0
1 -32 -39 0
1 32 8 0
1 -32 66 0
1 32 -36 0
1 -32 52 0
1 32 -77 0
1 74 -15 0
1 74 20 0
1 -74 36 0
1 74 18 0
1 -74 75 0
1 74 -78 0
1 -74 45 0
1 -75 20 0
1 75 -79 0
1 -75 33 0
1 75 36 0
1 75 -16 0
1 -75 -18 0
1 75 -45 0
1 66 15 0
1 66 -20 0
1 66 80 0
1 66 -36 0
1 -66 -16 0
1 -66 18 0
1 66 -67 0
1 66 81 0
1 67 -32 0
1 -67 -15 0
1 -67 20 0
1 67 -66 0
1 67 -79 0
1 -67 -80 0
1 -67 -36 0
1 67 16 0
1 -67 -18 0
1 -67 78 0
1 67 81 0
1 33 14 0
1 -33 -11 0
1 33 74 0
1 -33 -12 0
1 33 76 0
1 33 25 0
1 33 -77 0
1 -31 72 0
1 -31 -8 0
1 31 -23 0
1 -31 -82 0
1 31 33 0
1 31 -9 0
1 31 25 0
1 31 75 0
1 31 -77 0
1 43 23 0
1 -43 -80 0
1 -43 -76 0
1 43 25 0
1 43 -75 0
1 43 -45 0
1 -43 77 0
1 45 -35 0
1 45 30 0
1 -45 29 0
1 45 -25 0
1 45 -75 0
1 45 -81 0
1 -76 32 0
1 76 83 0
1 76 -84 0
1 -76 33 0
1 76 -85 0
1 76 86 0
1 76 -41 0
1 -14 -87 0
1 14 -32 0
1 14 -42 0
1 14 33 0
1 14 -6 0
1 14 -86 0
1 -82 3 0
1 -82 -33 0
1 -82 -88 0
1 82 -36 0
1 82 89 0
1 -82 -45 0
1 -77 83 0
1 -77 90 0
1 77 43 0
1 77 82 0
1 -77 78 0
1 -77 -31 0
1 42 -14 0
1 -42 35 0
1 -42 -30 0
1 42 -24 0
1 42 -79 0
1 42 -76 0
1 -42 29 0
1 42 27 0
1 41 30 0
1 -41 23 0
1 41 42 0
1 -41 34 0
1 -84 91 0
1 -84 -90 0
1 -84 34 0
1 -86 84 0
1 -86 -76 0
1 86 29 0
1 86 44 0
1 -86 40 0
1 86 -92 0
1 29 -93 0
1 29 30 0
1 29 -94 0
1 29 -9 0
1 29 95 0
1 -29 96 0
1 -29 86 0
1 29 41 0
1 -30 11 0
1 -30 -93 0
1 30 -97 0
1 -30 94 0
1 30 -42 0
1 30 43 0
1 30 95 0
1 30 98 0
1 30 -41 0
1 34 -93 0
1 -34 -84 0
1 34 99 0
1 -34 100 0
1 -34 101 0
1 -34 89 0
1 -34 41 0
1 34 -45 0
1 -35 83 0
1 -35 -42 0
1 35 43 0
1 -35 99 0
1 -35 86 0
1 -102 -30 0
1 -102 83 0
1 -102 44 0
1 -102 -29 0
1 -102 -98 0
1 102 40 0
1 -98 103 0
1 -98 44 0
1 -98 -89 0
1 94 -103 0
1 94 -104 0
1 94 -29 0
1 95 -101 0
1 -40 -105 0
1 40 -94 0
1 40 91 0
1 40 84 0
1 40 -95 0
1 40 98 0
1 -91 -105 0
1 -91 -94 0
1 -91 24 0
1 -91 102 0
1 91 95 0
1 91 98 0
1 44 106 0
1 -44 93 0
1 44 -107 0
1 -44 99 0
1 -44 -95 0
1 -44 -108 0
1 103 -23 0
1 103 109 0
1 103 102 0
1 103 -84 0
1 103 -107 0
1 -103 -44 0
1 -103 -99 0
1 103 -95 0
1 -103 86 0
1 110 -111 0
1 -110 112 0
1 -110 113 0
1 -110 114 0
1 -110 -46 0
1 115 -111 0
1 115 112 0
1 53 -111 0
1 -53 112 0
1 -53 116 0
1 -53 117 0
1 -53 113 0
1 -53 114 0
1 53 -50 0
1 53 -118 0
1 55 111 0
1 55 112 0
1 -55 118 0
1 -55 119 0
1 55 53 0
1 -114 62 0
1 114 55 0
1 114 -63 0
1 114 64 0
1 -114 110 0
1 112 -62 0
1 112 -55 0
1 -112 -53 0
1 -112 110 0
1 -113 120 0
1 113 -111 0
1 113 55 0
1 111 -121 0
1 -111 -55 0
1 -111 -115 0
1 -111 113 0
1 -64 116 0
1 64 117 0
1 -64 49 0
1 -64 118 0
1 62 -60 0
1 -62 116 0
1 62 119 0
1 -62 -49 0
1 -62 -118 0
1 63 60 0
1 -63 -65 0
1 63 116 0
1 63 -49 0
1 -63 -18 0
1 -63 119 0
1 -63 -122 0
1 65 -123 0
1 65 60 0
1 -65 20 0
1 65 -112 0
1 -65 117 0
1 -65 124 0
1 -65 125 0
1 -65 -49 0
1 65 -118 0
1 -65 122 0
1 -118 57 0
1 -118 55 0
1 118 -117 0
1 118 63 0
1 -118 -64 0
1 118 -53 0
1 118 126 0
1 -117 -127 0
1 -117 -57 0
1 117 65 0
1 -117 128 0
1 -117 71 0
1 -117 118 0
1 -117 63 0
1 -119 129 0
1 119 -116 0
1 -119 -128 0
1 -119 63 0
1 119 130 0
1 -116 129 0
1 116 55 0
1 116 63 0
1 -116 53 0
1 58 123 0
1 58 60 0
1 -58 57 0
1 -58 124 0
1 58 125 0
1 58 -49 0
1 58 59 0
1 -58 -56 0
1 -58 16 0
1 -57 123 0
1 -57 -68 0
1 57 -117 0
1 -57 -49 0
1 -57 -56 0
1 57 118 0
1 71 -127 0
1 -71 131 0
1 71 -68 0
1 71 125 0
1 71 -132 0
1 -71 36 0
1 71 133 0
1 71 -118 0
1 71 -122 0
1 -127 123 0
1 127 32 0
1 127 131 0
1 -127 117 0
1 127 -125 0
1 127 -132 0
1 127 -71 0
1 -127 -133 0
1 -127 118 0
1 127 -122 0
1 123 134 0
1 123 127 0
1 123 135 0
1 -123 -80 0
1 123 -125 0
1 -123 58 0
1 -123 63 0
1 -123 -81 0
1 125 72 0
1 -125 -65 0
1 125 135 0
1 -125 -80 0
1 -125 81 0
1 -122 -129 0
1 122 -127 0
1 122 65 0
1 -122 -135 0
1 122 -136 0
1 -122 128 0
1 -122 71 0
1 122 -137 0
1 124 57 0
1 -124 -135 0
1 -124 136 0
1 124 128 0
1 124 71 0
1 124 -63 0
1 124 -138 0
1 -124 137 0
1 -69 72 0
1 -69 -123 0
1 69 -131 0
1 -69 -68 0
1 -69 -54 0
1 -69 125 0
1 -69 33 0
1 -69 132 0
1 69 -52 0
1 -69 67 0
1 -72 -123 0
1 -72 129 0
1 -72 131 0
1 72 -68 0
1 -72 54 0
1 72 69 0
1 72 133 0
1 72 -52 0
1 72 -31 0
1 -80 131 0
1 -80 139 0
1 -80 -43 0
1 80 -136 0
1 -80 -132 0
1 -80 -133 0
1 80 -140 0
1 80 67 0
1 81 61 0
1 81 70 0
1 -81 80 0
1 -81 -125 0
1 -81 132 0
1 81 133 0
1 -81 -73 0
1 81 140 0
1 81 67 0
1 -81 -45 0
1 -131 -72 0
1 131 -127 0
1 131 141 0
1 131 69 0
1 -131 71 0
1 -131 -92 0
1 -133 142 0
1 133 69 0
1 133 -59 0
1 133 143 0
1 -133 -92 0
1 133 78 0
1 61 72 0
1 61 127 0
1 61 -142 0
1 61 144 0
1 61 -69 0
1 61 -132 0
1 -61 -145 0
1 61 138 0
1 -132 -142 0
1 -132 135 0
1 132 -69 0
1 -132 -145 0
1 -132 146 0
1 -79 135 0
1 -79 140 0
1 -79 -67 0
1 -79 -75 0
1 -79 -77 0
1 78 131 0
1 78 139 0
1 78 66 0
1 78 -74 0
1 -78 -79 0
1 -78 -133 0
1 78 -140 0
1 78 67 0
1 78 41 0
1 -78 -138 0
1 90 147 0
1 90 70 0
1 90 -84 0
1 90 -148 0
1 -90 -82 0
1 -90 -133 0
1 90 73 0
1 90 140 0
1 90 -77 0
1 -92 70 0
1 92 139 0
1 92 -148 0
1 92 -82 0
1 92 133 0
1 -92 140 0
1 92 -146 0
1 92 149 0
1 139 140 0
1 -139 150 0
1 -139 104 0
1 139 -54 0
1 -139 83 0
1 139 -151 0
1 139 -80 0
1 -139 152 0
1 139 101 0
1 139 -89 0
1 139 81 0
1 140 -104 0
1 140 83 0
1 -140 -139 0
1 -140 -90 0
1 -140 -80 0
1 -140 52 0
1 140 -89 0
1 70 150 0
1 70 68 0
1 70 153 0
1 -70 142 0
1 -70 -79 0
1 70 -152 0
1 -70 -73 0
1 70 154 0
1 70 81 0
1 -73 -155 0
1 -73 80 0
1 -73 -56 0
1 -73 145 0
1 -73 78 0
1 73 81 0
1 83 -14 0
1 -83 35 0
1 -83 140 0
1 83 102 0
1 -83 -139 0
1 -83 -148 0
1 -83 82 0
1 -83 89 0
1 -89 139 0
1 89 140 0
1 89 -147 0
1 89 -149 0
1 104 -156 0
1 104 139 0
1 -104 157 0
1 -104 88 0
1 -104 85 0
1 -104 -34 0
1 104 101 0
1 104 140 0
1 104 -149 0
1 101 87 0
1 101 -104 0
1 101 -157 0
1 101 148 0
1 -101 -34 0
1 -101 -149 0
1 -101 158 0
1 148 -159 0
1 148 -106 0
1 148 -93 0
1 -148 104 0
1 148 -90 0
1 148 -160 0
1 148 -101 0
1 -148 149 0
1 149 -104 0
1 -149 83 0
1 149 90 0
1 149 160 0
1 149 -161 0
1 -149 99 0
1 -149 89 0
1 149 -75 0
1 149 -162 0
1 157 -159 0
1 157 -163 0
1 -157 104 0
1 157 147 0
1 -157 -66 0
1 -157 -164 0
1 -157 160 0
1 -157 92 0
1 -147 150 0
1 -147 -160 0
1 -147 -165 0
1 147 152 0
1 147 -101 0
1 147 -89 0
1 -93 -87 0
1 -93 150 0
1 93 148 0
1 93 88 0
1 93 -99 0
1 93 -158 0
1 99 -35 0
1 -99 93 0
1 -99 -148 0
1 -99 -88 0
1 99 -85 0
1 99 -29 0
1 -99 158 0
1 -106 -87 0
1 106 163 0
1 -106 -166 0
1 -106 -148 0
1 106 88 0
1 106 149 0
1 161 -97 0
1 -161 -148 0
1 161 88 0
1 161 -44 0
1 -161 -149 0
1 161 -158 0
1 -85 -106 0
1 -85 104 0
1 -85 -167 0
1 -85 -168 0
1 -85 161 0
1 -85 -99 0
1 85 101 0
1 87 105 0
1 -87 -14 0
1 -87 167 0
1 87 168 0
1 -87 -107 0
1 -87 161 0
1 -87 85 0
1 -87 99 0
1 -87 -101 0
1 87 -169 0
1 87 -170 0
1 88 -93 0
1 88 104 0
1 88 -171 0
1 -88 -169 0
1 88 -158 0
1 158 -93 0
1 158 -167 0
1 158 161 0
1 158 -88 0
1 -158 99 0
1 158 -101 0
1 158 -169 0
1 -158 -172 0
1 105 -96 0
1 -107 105 0
1 -107 -87 0
1 107 166 0
1 107 97 0
1 -107 103 0
1 107 -91 0
1 -107 100 0
1 107 -44 0
1 -107 40 0
1 170 -166 0
1 170 97 0
1 -170 -168 0
1 170 100 0
1 -170 -108 0
1 -170 173 0
1 -168 -166 0
1 168 -109 0
1 -168 -171 0
1 -168 -96 0
1 168 -108 0
1 168 -173 0
1 96 -105 0
1 -96 -106 0
1 96 -97 0
1 -96 -174 0
1 -96 -168 0
1 96 -170 0
1 97 -105 0
1 -97 175 0
1 97 168 0
1 97 -96 0
1 97 176 0
1 -97 -170 0
1 100 106 0
1 -100 -177 0
1 100 -34 0
1 100 169 0
1 100 -170 0
1 -166 -167 0
1 166 168 0
1 166 107 0
1 -166 -161 0
1 166 -100 0
1 -166 -169 0
1 176 97 0
1 176 -109 0
1 -176 -178 0
1 176 108 0
1 -176 -173 0
1 176 169 0
1 174 -97 0
1 -174 -96 0
1 179 -97 0
1 179 -109 0
1 -179 175 0
1 179 178 0
1 -175 -177 0
1 173 -175 0
1 173 178 0
1 -173 174 0
1 -173 -168 0
1 -173 176 0
1 173 170 0
1 -178 -91 0
1 -178 -174 0
1 -178 179 0
1 108 174 0
1 -108 168 0
1 -108 -179 0
1 -109 103 0
1 -109 175 0
1 -109 179 0
1 -109 -176 0
1 128 121 0
1 -128 180 0
1 128 -120 0
1 128 -181 0
1 -128 119 0
1 -128 122 0
1 129 -180 0
1 -129 -116 0
1 129 -117 0
1 -129 -124 0
1 -129 119 0
1 -136 -121 0
1 136 -182 0
1 136 120 0
1 -136 130 0
1 -137 121 0
1 -137 -180 0
1 137 -182 0
1 -137 183 0
1 137 120 0
1 -137 -181 0
1 137 -130 0
1 137 122 0
1 -137 -81 0
1 181 -129 0
1 181 144 0
1 -181 -184 0
1 -181 -146 0
1 -180 -112 0
1 180 181 0
1 180 -137 0
1 120 113 0
1 120 185 0
1 121 -129 0
1 -121 136 0
1 -121 128 0
1 -135 61 0
1 -135 -180 0
1 -135 79 0
1 135 132 0
1 -135 -181 0
1 135 -126 0
1 135 138 0
1 135 122 0
1 -138 -61 0
1 -138 -180 0
1 138 -182 0
1 138 135 0
1 138 -130 0
1 138 126 0
1 -144 -134 0
1 -144 -183 0
1 144 186 0
1 144 -132 0
1 144 130 0
1 144 146 0
1 146 134 0
1 146 -182 0
1 146 144 0
1 146 183 0
1 146 187 0
1 146 132 0
1 146 181 0
1 -126 142 0
1 -126 -183 0
1 126 135 0
1 -126 -154 0
1 126 145 0
1 126 118 0
1 183 -188 0
1 -183 142 0
1 -183 -117 0
1 -183 -189 0
1 -183 135 0
1 -183 190 0
1 -130 -188 0
1 -130 144 0
1 130 135 0
1 -130 -119 0
1 -130 -136 0
1 130 190 0
1 -130 138 0
1 -182 -188 0
1 182 -144 0
1 -182 -191 0
1 -182 -135 0
1 -182 -190 0
1 -182 -137 0
1 142 134 0
1 -142 -61 0
1 142 -131 0
1 -142 -187 0
1 142 -133 0
1 142 145 0
1 142 -192 0
1 -145 134 0
1 -145 -70 0
1 -145 -142 0
1 -145 183 0
1 145 -186 0
1 -145 133 0
1 -145 -73 0
1 -156 -134 0
1 156 193 0
1 156 187 0
1 -156 -186 0
1 156 -194 0
1 -156 143 0
1 154 134 0
1 154 141 0
1 154 -156 0
1 -154 -183 0
1 154 -187 0
1 154 -194 0
1 154 73 0
1 -154 101 0
1 154 126 0
1 154 192 0
1 -134 -195 0
1 134 -150 0
1 134 -142 0
1 134 -196 0
1 134 165 0
1 -134 -152 0
1 -134 -145 0
1 -134 -146 0
1 -186 150 0
1 186 -142 0
1 -186 196 0
1 186 165 0
1 -186 -197 0
1 -186 -154 0
1 186 -145 0
1 -192 195 0
1 192 156 0
1 -192 -142 0
1 192 196 0
1 -192 190 0
1 -192 154 0
1 -192 -145 0
1 192 146 0
1 -187 195 0
1 -187 -188 0
1 -187 -144 0
1 -187 -198 0
1 -150 -70 0
1 -150 -186 0
1 150 194 0
1 150 -152 0
1 150 147 0
1 -152 -193 0
1 152 150 0
1 152 141 0
1 -152 157 0
1 -152 143 0
1 -163 -134 0
1 -163 193 0
1 -163 -141 0
1 163 143 0
1 163 155 0
1 -163 199 0
1 165 -163 0
1 -165 141 0
1 -165 -153 0
1 165 -186 0
1 -165 161 0
1 -165 155 0
1 -141 -150 0
1 141 -131 0
1 141 200 0
1 141 165 0
1 141 -152 0
1 -141 143 0
1 141 -172 0
1 143 -163 0
1 143 150 0
1 -143 -141 0
1 143 160 0
1 143 -165 0
1 143 -152 0
1 -143 133 0
1 -143 -154 0
1 193 -201 0
1 -193 195 0
1 -193 -163 0
1 193 -61 0
1 -193 -196 0
1 193 165 0
1 -193 194 0
1 -193 152 0
1 193 154 0
1 -194 -201 0
1 -194 193 0
1 194 -150 0
1 -194 -196 0
1 -194 -165 0
1 -194 -132 0
1 -194 -154 0
1 159 -195 0
1 -159 -141 0
1 159 153 0
1 159 151 0
1 -159 160 0
1 -159 143 0
1 159 -155 0
1 -159 -199 0
1 159 -147 0
1 160 159 0
1 -160 -141 0
1 -160 -151 0
1 160 147 0
1 160 149 0
1 172 201 0
1 -172 153 0
1 -172 151 0
1 -172 -164 0
1 -172 -202 0
1 172 143 0
1 172 155 0
1 172 -162 0
1 172 170 0
1 -171 153 0
1 -171 -151 0
1 -171 172 0
1 171 -202 0
1 171 203 0
1 -171 -155 0
1 171 199 0
1 -171 204 0
1 171 162 0
1 171 158 0
1 -151 163 0
1 151 -199 0
1 -151 139 0
1 -151 -167 0
1 151 -171 0
1 -151 -160 0
1 -151 -165 0
1 151 -169 0
1 151 -172 0
1 199 159 0
1 -199 -163 0
1 199 177 0
1 199 151 0
1 199 -160 0
1 -199 165 0
1 -153 -70 0
1 153 -205 0
1 -153 -165 0
1 153 -206 0
1 155 153 0
1 155 205 0
1 155 200 0
1 155 165 0
1 155 73 0
1 155 -172 0
1 169 151 0
1 169 167 0
1 169 164 0
1 -169 -88 0
1 -169 100 0
1 169 176 0
1 167 -87 0
1 167 -174 0
1 167 -164 0
1 167 -200 0
1 -167 -85 0
1 -167 100 0
1 167 -162 0
1 -167 -169 0
1 -167 -158 0
1 -207 -166 0
1 207 177 0
1 -207 -151 0
1 -207 202 0
1 -207 199 0
1 207 179 0
1 -177 166 0
1 -177 205 0
1 177 -202 0
1 177 -100 0
1 177 162 0
1 202 177 0
1 -202 172 0
1 -162 177 0
1 162 167 0
1 -162 -202 0
1 -164 -177 0
1 -164 -167 0
1 -164 -171 0
1 -164 207 0
1 204 167 0
1 204 -164 0
1 -204 -207 0
1 188 -150 0
1 -188 208 0
1 188 -187 0
1 188 -190 0
1 -188 184 0
1 -188 130 0
1 188 -126 0
1 -188 -192 0
1 190 188 0
1 190 209 0
1 -190 208 0
1 -190 182 0
1 -190 187 0
1 -190 -184 0
1 210 -163 0
1 210 -209 0
1 210 208 0
1 -210 -191 0
1 -210 -189 0
1 210 -184 0
1 -210 192 0
1 -198 -209 0
1 -198 191 0
1 -198 -187 0
1 -198 -184 0
1 -198 -211 0
1 -198 192 0
1 184 -195 0
1 184 210 0
1 -184 188 0
1 184 208 0
1 184 -203 0
1 -184 -198 0
1 184 190 0
1 208 201 0
1 208 210 0
1 -208 -188 0
1 -208 -180 0
1 -208 203 0
1 -208 -190 0
1 -185 -188 0
1 185 120 0
1 -209 -210 0
1 209 -185 0
1 195 159 0
1 195 -134 0
1 195 -208 0
1 195 -191 0
1 195 189 0
1 -195 187 0
1 195 186 0
1 -195 211 0
1 195 212 0
1 196 -134 0
1 196 -195 0
1 -196 -160 0
1 196 -212 0
1 201 -213 0
1 201 -193 0
1 -201 -191 0
1 201 -189 0
1 -201 214 0
1 201 -197 0
1 203 201 0
1 -203 -191 0
1 -203 -189 0
1 203 -197 0
1 203 184 0
1 203 -211 0
1 -212 -201 0
1 -212 -195 0
1 212 205 0
1 -212 200 0
1 -212 -189 0
1 -212 -196 0
1 212 206 0
1 189 -183 0
1 189 -203 0
1 -189 -196 0
1 189 198 0
1 -189 206 0
1 -189 -212 0
1 211 201 0
1 -211 -195 0
1 211 191 0
1 -211 -130 0
1 -191 -201 0
1 -191 -210 0
1 -191 182 0
1 -191 -203 0
1 -191 196 0
1 191 211 0
1 200 141 0
1 200 -189 0
1 -200 -143 0
1 200 -155 0
1 -200 -212 0
1 -206 213 0
1 206 205 0
1 -206 -189 0
1 206 212 0
1 -205 213 0
1 -205 215 0
1 205 -153 0
1 -205 -177 0
1 205 189 0
1 -205 -212 0
1 215 -134 0
1 -215 -205 0
1 215 203 0
1 215 197 0
1 215 -206 0
1 -197 -215 0
1 197 205 0
1 197 -203 0
1 197 -186 0
1 -213 201 0
1 213 200 0
1 213 203 0
1 -213 -214 0
1 214 213 0
1 -214 203 0
1 214 -206 0
